Route #0: 473 394 441 543 679 742 781 119 524 186
Route #1: 544 278 511 308 191 712 898 979 915 732
Route #2: 615 667 808 926 964 988 277 286 824
Route #3: 488 800 211 359 442 804 715 888 923 355
Route #4: 985 884 305 30 478 5 477 398
Route #5: 758 774 520 357 686 327 499 405
Route #6: 997 836 69 87 796 951 120 521 996
Route #7: 924 155 224 590 702 199 420 566 737 873 576 676
Route #8: 638 72 573 337 613 947 588 439 751
Route #9: 130 725 612 904 855 13 78 794 971 628 376 817
Route #10: 36 663 714 561 498 438 22 311 893 266
Route #11: 183 981 125 954 404 39 782 256 857 510
Route #12: 581 933 52 335 368 654 918 530 444 699 59 140
Route #13: 577 249 20 46 27 680 153 522 811
Route #14: 968 745 218 371 643 143 844 956 661
Cost: 244952
